NAME: tsp50_27
COMMENT: 50-tsp problem (Padberg/Rinaldi)
TYPE: TSP
DIMENSION: 50
EDGE_WEIGHT_TYPE : EUC_2D
NODE_COORD_SECTION
1 2 32
2 5 23
3 37 15
4 33 29
5 34 17
6 33 36
7 21 4
8 7 31
9 29 40
10 22 36
11 20 36
12 39 10
13 38 10
14 20 17
15 17 7
16 37 33
17 7 1
18 6 26
19 23 5
20 25 27
21 11 5
22 18 19
23 3 23
24 31 4
25 19 35
26 34 19
27 13 5
28 33 32
29 0 5
30 17 20
31 32 37
32 3 27
33 24 9
34 14 10
35 33 27
36 25 4
37 13 27
38 6 29
39 24 33
40 6 28
41 7 23
42 25 8
43 4 23
44 35 35
45 18 16
46 37 10
47 2 4
48 19 2
49 7 25
50 3 36
